CPXPARAM_TimeLimit                               3600
CPXPARAM_Read_DataCheck                          1
CPXPARAM_MIP_Limits_Solutions                    1
Tried aggregator 1 time.
MIP Presolve eliminated 2504 rows and 0 columns.
MIP Presolve modified 4280 coefficients.
Reduced MIP has 169376 rows, 54451 columns, and 611926 nonzeros.
Reduced MIP has 2850 binaries, 0 generals, 0 SOSs, and 0 indicators.
Presolve time = 0.15 sec. (225.48 ticks)
Found incumbent of value 11600.000000 after 0.28 sec. (383.80 ticks)

Root node processing (before b&c):
  Real time             =    0.29 sec. (386.46 ticks)
Parallel b&c, 8 threads:
  Real time             =    0.00 sec. (0.00 ticks)
  Sync time (average)   =    0.00 sec.
  Wait time (average)   =    0.00 sec.
                          ------------
Total (root+branch&cut) =    0.29 sec. (386.46 ticks)
